Problem:    
Rows:       68
Columns:    29 (20 integer, 20 binary)
Non-zeros:  210
Status:     INTEGER OPTIMAL
Objective:  value = 21.921599 (MINimum)

   No.   Row name        Activity     Lower bound   Upper bound
------ ------------    ------------- ------------- -------------
     1 r.5                   21.9216             0               
     2 r.6                   21.9216      -945.295               
     3 r.7                   1021.92             0               
     4 r.8                  -978.078      -990.367               
     5 r.9                   21.9216             0               
     6 r.10                  21.9216      -999.252               
     7 r.11                  1021.92             0               
     8 r.12                 -997.549      -998.782               
     9 r.13                  21.9216             0               
    10 r.14                  21.9216      -944.656               
    11 r.15                  1021.92             0               
    12 r.16                 -987.711      -990.162               
    13 r.17                  21.9216             0               
    14 r.18                   1.2339      -999.775               
    15 r.19                  1021.92             0               
    16 r.20                 -998.766      -998.766               
    17 r.21                        1             1             = 
    18 r.22                        1             1             = 
    19 r.23                        1             1             = 
    20 r.24                        1             1             = 
    21 r.25                     1000             2               
    22 r.26                    -1000         -1001               
    23 r.27                     2000      -999.252               
    24 r.28                        2             2               
    25 r.29                       -2         -1001               
    26 r.30                 -19.4701      -998.782               
    27 r.31                     1000             2               
    28 r.32                    -1000         -1001               
    29 r.33                     2000      -944.656               
    30 r.34                        2             2               
    31 r.35                       -2         -1001               
    32 r.36                  -9.6325      -990.162               
    33 r.37                  20.6877      -945.295               
    34 r.38                 -979.312      -990.367               
    35 r.39                  20.6877      -945.295               
    36 r.40                 -979.312      -990.367               
    37 r.41                     1000             2               
    38 r.42                    -1000         -1001               
    39 r.43                     2000       54.7046               
    40 r.44                        2             2               
    41 r.45                       -2         -1001               
    42 r.46                  19.4701        9.6325               
    43 r.47                     1000             2               
    44 r.48                    -1000         -1001               
    45 r.49                     2000      -944.656               
    46 r.50                        2             2               
    47 r.51                       -2         -1001               
    48 r.52                 -990.162      -990.162               
    49 r.53                  20.6877      -999.252               
    50 r.54                 -998.782      -998.782               
    51 r.55                  20.6877      -999.252               
    52 r.56                 -998.782      -998.782               
    53 r.57                     1000             2               
    54 r.58                    -1000         -1001               
    55 r.59                     2000       54.7046               
    56 r.60                        2             2               
    57 r.61                       -2         -1001               
    58 r.62                   9.6325        9.6325               
    59 r.63                     1000             2               
    60 r.64                    -1000         -1001               
    61 r.65                     2000        0.7481               
    62 r.66                        2             2               
    63 r.67                       -2         -1001               
    64 r.68                  990.162        1.2176               
    65 r.69                  20.6877      -944.656               
    66 r.70                 -988.945      -990.162               
    67 r.71                  20.6877      -944.656               
    68 r.72                 -988.945      -990.162               

   No. Column name       Activity     Lower bound   Upper bound
------ ------------    ------------- ------------- -------------
     1 tt                    21.9216             0               
     2 s_1_1        *              0             0             1 
     3 t_1_1                       0             0               
     4 s_2_1        *              1             0             1 
     5 t_2_1                       0             0               
     6 s_1_2        *              0             0             1 
     7 t_1_2                       0             0               
     8 s_2_2        *              1             0             1 
     9 t_2_2                 19.4701             0               
    10 s_1_3        *              0             0             1 
    11 t_1_3                       0             0               
    12 s_2_3        *              1             0             1 
    13 t_2_3                  9.6325             0               
    14 s_1_4        *              0             0             1 
    15 t_1_4                 20.6877             0               
    16 s_2_4        *              1             0             1 
    17 t_2_4                 20.6877             0               
    18 r_1_1_2      *              1             0             1 
    19 u_1_1_2      *              0             0             1 
    20 r_2_1_2      *              0             0             1 
    21 u_2_1_2      *              0             0             1 
    22 r_1_1_3      *              1             0             1 
    23 u_1_1_3      *              0             0             1 
    24 r_2_1_3      *              0             0             1 
    25 u_2_1_3      *              0             0             1 
    26 r_1_2_3      *              1             0             1 
    27 u_1_2_3      *              0             0             1 
    28 r_2_2_3      *              0             0             1 
    29 u_2_2_3      *              1             0             1 

Integer feasibility conditions:

KKT.PE: max.abs.err = 2.27e-13 on row 16
        max.rel.err = 1.11e-16 on row 16
        High quality

KKT.PB: max.abs.err = 1.14e-13 on row 16
        max.rel.err = 1.14e-16 on row 16
        High quality

End of output
